# Objective value = 3.4959700000000048e+03
I_0_0 3343
I_0_1 4.2650000000000018e+03
I_0_2 3.5829999999999882e+03
I_0_3 4.9620000000000082e+03
I_1_0 192
I_1_1 1.9200000000000142e+02
I_1_2 9.6000000000001307e+01
I_1_3 -2.5615065624151612e-12
I_2_0 166
I_2_1 83
I_2_2 166
I_2_3 8.2999999999999986e+01
I_3_0 85
I_3_1 -2.4630297801309098e-12
I_3_2 85
I_3_3 0
I_4_0 97
I_4_1 0
I_4_2 97
I_4_3 0
I_5_0 83
I_5_1 0
I_5_2 83
I_5_3 0
I_6_0 77
I_6_1 77
I_6_2 77.0000000000011
I_6_3 -1.1498024754530434e-12
I_7_0 108
I_7_1 54
I_7_2 108
I_7_3 54
I_8_0 78
I_8_1 -8.7679863369771738e-14
I_8_2 78.0000000000001
I_8_3 -8.7679863369771738e-14
I_9_0 54
I_9_1 -1.0716427745194324e-12
I_9_2 5.4000000000001044e+01
I_9_3 -1.0716427745194324e-12
I_10_0 162
I_10_1 1.6200000000000040e+02
I_10_2 81.0000000000004
I_10_3 -7.5317529990570620e-13
I_11_0 69
I_11_1 69
I_11_2 6.9000000000001052e+01
I_11_3 -1.0408757189495077e-12
I_12_0 82
I_12_1 41
I_12_2 82
I_12_3 41
I_13_0 65
I_13_1 0
I_13_2 65
I_13_3 0
I_14_0 35
I_14_1 -1.2725931419765857e-13
I_14_2 3.5000000000000107e+01
I_14_3 -1.2725931419765857e-13
I_15_0 72
I_15_1 72
I_15_2 3.6000000000000021e+01
I_15_3 -5.0074045448464774e-12
I_16_0 116
I_16_1 1.1600000000000463e+02
I_16_2 116
I_16_3 58
I_17_0 36
I_17_1 17.9999999999994
I_17_2 36.0000000000006
I_17_3 1.8000000000000597e+01
I_18_0 54
I_18_1 54
I_18_2 27
I_18_3 0
I_19_0 54
I_19_1 27
I_19_2 54
I_19_3 2.7000000000000014e+01
I_20_0 19
I_20_1 -1.0494383140269292e-13
I_20_2 1.9000000000000284e+01
I_20_3 -3.0006552798056418e-13
I_21_0 15
I_21_1 -2.2856716519470410e-13
I_21_2 1.5000000000000210e+01
I_21_3 -2.2856716519470410e-13
I_22_0 72
I_22_1 0
I_22_2 72
I_22_3 0
I_23_0 32
I_23_1 0
I_23_2 32
I_23_3 0
I_24_0 128
I_24_1 6.3999999999996490e+01
I_24_2 1.2800000000000551e+02
I_24_3 6.4000000000004420e+01
I_25_0 13
I_25_1 13
I_25_2 1.3000000000000018e+01
I_25_3 -1.8943180357666733e-15
q_1_0 96.0000000000014
q_1_1 0
q_1_2 -3.8724579098925460e-12
q_2_0 0
q_2_1 166
q_2_2 0
q_3_0 -2.4630297801309098e-12
q_3_1 1.7000000000000244e+02
q_3_2 0
q_4_0 0
q_4_1 194
q_4_2 0
q_5_0 0
q_5_1 166
q_5_2 0
q_6_0 77
q_6_1 77.0000000000011
q_6_2 -2.2440382885235977e-12
q_7_0 1.4988010832439613e-15
q_7_1 108
q_7_2 0
q_8_0 -8.7679863369771738e-14
q_8_1 1.5600000000000017e+02
q_8_2 -1.8715584637618576e-13
q_9_0 -1.0716427745194324e-12
q_9_1 1.0800000000000212e+02
q_9_2 -2.1161405960867796e-12
q_10_0 81.0000000000004
q_10_1 0
q_10_2 -1.1510792319313623e-12
q_11_0 69
q_11_1 6.9000000000001052e+01
q_11_2 -2.0924789678744560e-12
q_12_0 0
q_12_1 82
q_12_2 0
q_13_0 0
q_13_1 130
q_13_2 0
q_14_0 -1.2725931419765857e-13
q_14_1 7.0000000000000227e+01
q_14_2 -2.3384072456167360e-13
q_15_0 3.5999999999999993e+01
q_15_1 0
q_15_2 -5.0313853621783808e-12
q_16_0 5.8000000000004633e+01
q_16_1 5.7999999999995339e+01
q_16_2 0
q_17_0 -6.0002003365866585e-13
q_17_1 36.0000000000012
q_17_2 0
q_18_0 27
q_18_1 0
q_18_2 0
q_19_0 0
q_19_1 5.3999999999999929e+01
q_19_2 1.0658141036401503e-14
q_20_0 -1.0494383140269292e-13
q_20_1 3.8000000000000391e+01
q_20_2 -5.8428262228460426e-13
q_21_0 -2.2856716519470410e-13
q_21_1 3.0000000000000441e+01
q_21_2 -4.3817727224393366e-13
q_22_0 0
q_22_1 144
q_22_2 0
q_23_0 0
q_23_1 64
q_23_2 0
q_24_0 -3.5100811146548949e-12
q_24_1 1.2800000000000898e+02
q_24_2 -1.0835776720341528e-12
q_25_0 13
q_25_1 1.3000000000000018e+01
q_25_2 -1.9657886429769178e-14
y_0_0 1
y_0_1 1
y_0_2 -4.6906922790412864e-15
y_1_0 1.0000000000000147e+00
y_1_1 0
y_1_2 -1.3461454173580023e-14
y_2_0 0
y_2_1 1
y_2_2 0
y_3_0 -2.8976820942716586e-14
y_3_1 1
y_3_2 0
y_4_0 0
y_4_1 1
y_4_2 0
y_5_0 0
y_5_1 1
y_5_2 0
y_6_0 1
y_6_1 1.0000000000000142e+00
y_6_2 -1.4932499681208355e-14
y_7_0 2.7755575615628914e-17
y_7_1 1
y_7_2 0
y_8_0 -1.1241008124329710e-15
y_8_1 1.0000000000000013e+00
y_8_2 -1.1241008124329710e-15
y_9_0 -1.9845236565174673e-14
y_9_1 1.0000000000000193e+00
y_9_2 -1.9845236565174673e-14
y_10_0 1.0000000000000049e+00
y_10_1 0
y_10_2 -4.6906922790412864e-15
y_11_0 1
y_11_1 1.0000000000000153e+00
y_11_2 -1.5085155347094314e-14
y_12_0 0
y_12_1 1
y_12_2 0
y_13_0 0
y_13_1 1
y_13_2 0
y_14_0 -3.6359804056473877e-15
y_14_1 1.0000000000000031e+00
y_14_2 -3.6359804056473877e-15
y_15_0 9.9999999999999978e-01
y_15_1 0
y_15_2 0
y_16_0 1.00000000000008
y_16_1 1
y_16_2 0
y_17_0 -3.3334446314370325e-14
y_17_1 1.0000000000000333e+00
y_17_2 0
y_18_0 1
y_18_1 0
y_18_2 0
y_19_0 0
y_19_1 9.9999999999999878e-01
y_19_2 1.1102230246251565e-16
y_20_0 -5.5233595475101538e-15
y_20_1 1.0000000000000149e+00
y_20_2 -1.5792922525292852e-14
y_21_0 -1.5237811012980274e-14
y_21_1 1.0000000000000140e+00
y_21_2 -1.5237811012980274e-14
y_22_0 0
y_22_1 1
y_22_2 0
y_23_0 0
y_23_1 1
y_23_2 0
y_24_0 -5.4845017416482733e-14
y_24_1 1.0000000000000702e+00
y_24_2 -4.6906922790412864e-15
y_25_0 1
y_25_1 1.0000000000000013e+00
y_25_2 -1.4571677198205180e-16
x_0_1_0 0
x_0_1_1 0
x_0_1_2 0
x_0_2_0 0
x_0_2_1 0
x_0_2_2 0
x_0_3_0 0
x_0_3_1 0
x_0_3_2 0
x_0_4_0 0
x_0_4_1 0
x_0_4_2 0
x_0_5_0 0
x_0_5_1 0
x_0_5_2 0
x_0_6_0 0
x_0_6_1 0
x_0_6_2 0
x_0_7_0 0
x_0_7_1 0
x_0_7_2 0
x_0_8_0 0
x_0_8_1 0
x_0_8_2 0
x_0_9_0 0
x_0_9_1 0
x_0_9_2 0
x_0_10_0 0
x_0_10_1 0
x_0_10_2 0
x_0_11_0 0
x_0_11_1 0
x_0_11_2 0
x_0_12_0 0
x_0_12_1 0
x_0_12_2 0
x_0_13_0 0
x_0_13_1 0
x_0_13_2 0
x_0_14_0 0
x_0_14_1 0
x_0_14_2 0
x_0_15_0 1.0000000000000795e+00
x_0_15_1 0
x_0_15_2 0
x_0_16_0 1.0000000000000593e+00
x_0_16_1 4.3298697960381105e-15
x_0_16_2 0
x_0_17_0 0
x_0_17_1 0
x_0_17_2 0
x_0_18_0 0
x_0_18_1 0
x_0_18_2 0
x_0_19_0 0
x_0_19_1 0
x_0_19_2 0
x_0_20_0 0
x_0_20_1 0
x_0_20_2 0
x_0_21_0 0
x_0_21_1 0
x_0_21_2 0
x_0_22_0 0
x_0_22_1 9.9999999999999933e-01
x_0_22_2 0
x_0_23_0 0
x_0_23_1 9.9999999999999445e-01
x_0_23_2 0
x_0_24_0 -1.0969003483296547e-13
x_0_24_1 0
x_0_24_2 -9.3813845580825728e-15
x_0_25_0 0
x_0_25_1 0
x_0_25_2 0
x_1_2_0 0
x_1_2_1 0
x_1_2_2 0
x_1_3_0 -1.9234613901630837e-14
x_1_3_1 0
x_1_3_2 -3.83026943495679e-15
x_1_4_0 0
x_1_4_1 0
x_1_4_2 0
x_1_5_0 0
x_1_5_1 0
x_1_5_2 0
x_1_6_0 1.0000000000000295e+00
x_1_6_1 0
x_1_6_2 -2.0150547896946591e-14
x_1_7_0 0
x_1_7_1 0
x_1_7_2 0
x_1_8_0 0
x_1_8_1 0
x_1_8_2 0
x_1_9_0 0
x_1_9_1 0
x_1_9_2 0
x_1_10_0 0
x_1_10_1 0
x_1_10_2 1.2684298056342413e-14
x_1_11_0 1.0000000000000353e+00
x_1_11_1 0
x_1_11_2 -8.0629947163402e-15
x_1_12_0 0
x_1_12_1 0
x_1_12_2 0
x_1_13_0 0
x_1_13_1 0
x_1_13_2 0
x_1_14_0 0
x_1_14_1 0
x_1_14_2 0
x_1_15_0 0
x_1_15_1 0
x_1_15_2 0
x_1_16_0 0
x_1_16_1 0
x_1_16_2 0
x_1_17_0 -1.6153745008296028e-14
x_1_17_1 0
x_1_17_2 0
x_1_18_0 0
x_1_18_1 0
x_1_18_2 0
x_1_19_0 0
x_1_19_1 0
x_1_19_2 0
x_1_20_0 0
x_1_20_1 0
x_1_20_2 0
x_1_21_0 0
x_1_21_1 0
x_1_21_2 0
x_1_22_0 0
x_1_22_1 0
x_1_22_2 0
x_1_23_0 0
x_1_23_1 0
x_1_23_2 0
x_1_24_0 0
x_1_24_1 0
x_1_24_2 0
x_1_25_0 0
x_1_25_1 0
x_1_25_2 0
x_2_3_0 0
x_2_3_1 0
x_2_3_2 0
x_2_4_0 0
x_2_4_1 0
x_2_4_2 0
x_2_5_0 0
x_2_5_1 0
x_2_5_2 0
x_2_6_0 0
x_2_6_1 -3.11972669919669e-14
x_2_6_2 2.7755575615628914e-15
x_2_7_0 0
x_2_7_1 0
x_2_7_2 0
x_2_8_0 0
x_2_8_1 0
x_2_8_2 0
x_2_9_0 0
x_2_9_1 0
x_2_9_2 0
x_2_10_0 0
x_2_10_1 0
x_2_10_2 0
x_2_11_0 0
x_2_11_1 0
x_2_11_2 0
x_2_12_0 0
x_2_12_1 1
x_2_12_2 0
x_2_13_0 0
x_2_13_1 0
x_2_13_2 0
x_2_14_0 0
x_2_14_1 0
x_2_14_2 0
x_2_15_0 0
x_2_15_1 0
x_2_15_2 0
x_2_16_0 0
x_2_16_1 0
x_2_16_2 0
x_2_17_0 0
x_2_17_1 0
x_2_17_2 -1.5321077739827160e-14
x_2_18_0 0
x_2_18_1 0
x_2_18_2 0
x_2_19_0 0
x_2_19_1 0
x_2_19_2 0
x_2_20_0 0
x_2_20_1 0
x_2_20_2 1.2517764602648640e-14
x_2_21_0 0
x_2_21_1 1.0000000000000386e+00
x_2_21_2 0
x_2_22_0 0
x_2_22_1 0
x_2_22_2 0
x_2_23_0 0
x_2_23_1 0
x_2_23_2 0
x_2_24_0 0
x_2_24_1 0
x_2_24_2 0
x_2_25_0 0
x_2_25_1 0
x_2_25_2 0
x_3_4_0 0
x_3_4_1 0
x_3_4_2 0
x_3_5_0 0
x_3_5_1 0
x_3_5_2 0
x_3_6_0 0
x_3_6_1 -4.3520742565306136e-14
x_3_6_2 0
x_3_7_0 0
x_3_7_1 1.0000000000000193e+00
x_3_7_2 0
x_3_8_0 0
x_3_8_1 -3.9857006584043120e-14
x_3_8_2 1.9276247265054280e-14
x_3_9_0 -2.6312285683616210e-14
x_3_9_1 0
x_3_9_2 0
x_3_10_0 0
x_3_10_1 0
x_3_10_2 0
x_3_11_0 0
x_3_11_1 1.4307999229856705e-14
x_3_11_2 0
x_3_12_0 0
x_3_12_1 0
x_3_12_2 0
x_3_13_0 0
x_3_13_1 0
x_3_13_2 0
x_3_14_0 0
x_3_14_1 0
x_3_14_2 0
x_3_15_0 0
x_3_15_1 0
x_3_15_2 0
x_3_16_0 0
x_3_16_1 0
x_3_16_2 0
x_3_17_0 -7.5495165674510645e-15
x_3_17_1 1.0000000000000420e+00
x_3_17_2 1.7014167852380524e-14
x_3_18_0 0
x_3_18_1 0
x_3_18_2 0
x_3_19_0 0
x_3_19_1 0
x_3_19_2 0
x_3_20_0 0
x_3_20_1 0
x_3_20_2 0
x_3_21_0 0
x_3_21_1 0
x_3_21_2 0
x_3_22_0 0
x_3_22_1 0
x_3_22_2 0
x_3_23_0 0
x_3_23_1 0
x_3_23_2 0
x_3_24_0 0
x_3_24_1 0
x_3_24_2 0
x_3_25_0 0
x_3_25_1 0
x_3_25_2 0
x_4_5_0 0
x_4_5_1 9.9999999999999833e-01
x_4_5_2 0
x_4_6_0 0
x_4_6_1 0
x_4_6_2 0
x_4_7_0 0
x_4_7_1 0
x_4_7_2 0
x_4_8_0 0
x_4_8_1 0
x_4_8_2 0
x_4_9_0 0
x_4_9_1 0
x_4_9_2 0
x_4_10_0 0
x_4_10_1 0
x_4_10_2 0
x_4_11_0 0
x_4_11_1 0
x_4_11_2 0
x_4_12_0 0
x_4_12_1 0
x_4_12_2 0
x_4_13_0 0
x_4_13_1 1.0000000000000016e+00
x_4_13_2 0
x_4_14_0 0
x_4_14_1 0
x_4_14_2 0
x_4_15_0 0
x_4_15_1 0
x_4_15_2 0
x_4_16_0 0
x_4_16_1 0
x_4_16_2 0
x_4_17_0 0
x_4_17_1 0
x_4_17_2 0
x_4_18_0 0
x_4_18_1 0
x_4_18_2 0
x_4_19_0 0
x_4_19_1 0
x_4_19_2 0
x_4_20_0 0
x_4_20_1 0
x_4_20_2 0
x_4_21_0 0
x_4_21_1 0
x_4_21_2 0
x_4_22_0 0
x_4_22_1 0
x_4_22_2 0
x_4_23_0 0
x_4_23_1 1.1102230246251565e-16
x_4_23_2 0
x_4_24_0 0
x_4_24_1 0
x_4_24_2 0
x_4_25_0 0
x_4_25_1 0
x_4_25_2 0
x_5_6_0 0
x_5_6_1 0
x_5_6_2 0
x_5_7_0 0
x_5_7_1 0
x_5_7_2 0
x_5_8_0 0
x_5_8_1 0
x_5_8_2 0
x_5_9_0 0
x_5_9_1 0
x_5_9_2 0
x_5_10_0 0
x_5_10_1 0
x_5_10_2 0
x_5_11_0 0
x_5_11_1 0
x_5_11_2 0
x_5_12_0 0
x_5_12_1 0
x_5_12_2 0
x_5_13_0 0
x_5_13_1 2.7755575615628914e-16
x_5_13_2 0
x_5_14_0 0
x_5_14_1 1.0000000000000016e+00
x_5_14_2 0
x_5_15_0 0
x_5_15_1 0
x_5_15_2 0
x_5_16_0 0
x_5_16_1 0
x_5_16_2 0
x_5_17_0 0
x_5_17_1 0
x_5_17_2 0
x_5_18_0 0
x_5_18_1 0
x_5_18_2 0
x_5_19_0 0
x_5_19_1 0
x_5_19_2 0
x_5_20_0 0
x_5_20_1 0
x_5_20_2 0
x_5_21_0 0
x_5_21_1 0
x_5_21_2 0
x_5_22_0 0
x_5_22_1 0
x_5_22_2 0
x_5_23_0 0
x_5_23_1 0
x_5_23_2 0
x_5_24_0 0
x_5_24_1 0
x_5_24_2 0
x_5_25_0 0
x_5_25_1 0
x_5_25_2 0
x_6_7_0 0
x_6_7_1 0
x_6_7_2 0
x_6_8_0 0
x_6_8_1 0
x_6_8_2 0
x_6_9_0 0
x_6_9_1 0
x_6_9_2 0
x_6_10_0 9.9999999999998557e-01
x_6_10_1 0
x_6_10_2 0
x_6_11_0 -3.4361402612148595e-14
x_6_11_1 1.0000000000000571e+00
x_6_11_2 0
x_6_12_0 0
x_6_12_1 0
x_6_12_2 0
x_6_13_0 0
x_6_13_1 0
x_6_13_2 0
x_6_14_0 0
x_6_14_1 0
x_6_14_2 0
x_6_15_0 0
x_6_15_1 0
x_6_15_2 0
x_6_16_0 0
x_6_16_1 0
x_6_16_2 0
x_6_17_0 -3.1030733538273125e-14
x_6_17_1 1.0116907311896739e-14
x_6_17_2 0
x_6_18_0 0
x_6_18_1 0
x_6_18_2 0
x_6_19_0 0
x_6_19_1 0
x_6_19_2 0
x_6_20_0 -8.1601392309949e-15
x_6_20_1 1.0000000000000493e+00
x_6_20_2 -1.4405143744511406e-14
x_6_21_0 4.6351811278100286e-14
x_6_21_1 0
x_6_21_2 0
x_6_22_0 0
x_6_22_1 0
x_6_22_2 0
x_6_23_0 0
x_6_23_1 0
x_6_23_2 0
x_6_24_0 0
x_6_24_1 0
x_6_24_2 0
x_6_25_0 2.0372592501871623e-14
x_6_25_1 0
x_6_25_2 0
x_7_8_0 0
x_7_8_1 0
x_7_8_2 0
x_7_9_0 5.5511151231257827e-17
x_7_9_1 1
x_7_9_2 0
x_7_10_0 0
x_7_10_1 0
x_7_10_2 0
x_7_11_0 0
x_7_11_1 0
x_7_11_2 0
x_7_12_0 0
x_7_12_1 0
x_7_12_2 0
x_7_13_0 0
x_7_13_1 0
x_7_13_2 0
x_7_14_0 0
x_7_14_1 0
x_7_14_2 0
x_7_15_0 0
x_7_15_1 0
x_7_15_2 0
x_7_16_0 0
x_7_16_1 0
x_7_16_2 0
x_7_17_0 0
x_7_17_1 -1.9845236565174673e-14
x_7_17_2 0
x_7_18_0 0
x_7_18_1 0
x_7_18_2 0
x_7_19_0 0
x_7_19_1 0
x_7_19_2 0
x_7_20_0 0
x_7_20_1 0
x_7_20_2 0
x_7_21_0 0
x_7_21_1 0
x_7_21_2 0
x_7_22_0 0
x_7_22_1 0
x_7_22_2 0
x_7_23_0 0
x_7_23_1 0
x_7_23_2 0
x_7_24_0 0
x_7_24_1 0
x_7_24_2 0
x_7_25_0 0
x_7_25_1 0
x_7_25_2 0
x_8_9_0 0
x_8_9_1 1.0000000000000380e+00
x_8_9_2 -1.6112111644872584e-14
x_8_10_0 0
x_8_10_1 0
x_8_10_2 0
x_8_11_0 0
x_8_11_1 0
x_8_11_2 0
x_8_12_0 0
x_8_12_1 0
x_8_12_2 0
x_8_13_0 0
x_8_13_1 0
x_8_13_2 0
x_8_14_0 -2.2482016248659420e-15
x_8_14_1 1.0000000000000020e+00
x_8_14_2 -2.6645352591003757e-15
x_8_15_0 0
x_8_15_1 0
x_8_15_2 0
x_8_16_0 0
x_8_16_1 0
x_8_16_2 0
x_8_17_0 0
x_8_17_1 0
x_8_17_2 0
x_8_18_0 0
x_8_18_1 0
x_8_18_2 0
x_8_19_0 0
x_8_19_1 0
x_8_19_2 -9.9364960703951510e-15
x_8_20_0 0
x_8_20_1 0
x_8_20_2 0
x_8_21_0 0
x_8_21_1 0
x_8_21_2 0
x_8_22_0 0
x_8_22_1 0
x_8_22_2 0
x_8_23_0 0
x_8_23_1 0
x_8_23_2 0
x_8_24_0 0
x_8_24_1 0
x_8_24_2 0
x_8_25_0 0
x_8_25_1 0
x_8_25_2 0
x_9_10_0 0
x_9_10_1 0
x_9_10_2 0
x_9_11_0 0
x_9_11_1 0
x_9_11_2 0
x_9_12_0 0
x_9_12_1 0
x_9_12_2 0
x_9_13_0 0
x_9_13_1 0
x_9_13_2 0
x_9_14_0 0
x_9_14_1 1.6653345369377348e-16
x_9_14_2 -2.3592239273284576e-14
x_9_15_0 0
x_9_15_1 0
x_9_15_2 0
x_9_16_0 0
x_9_16_1 0
x_9_16_2 0
x_9_17_0 -9.1038288019262836e-15
x_9_17_1 0
x_9_17_2 0
x_9_18_0 0
x_9_18_1 0
x_9_18_2 0
x_9_19_0 0
x_9_19_1 0
x_9_19_2 0
x_9_20_0 0
x_9_20_1 0
x_9_20_2 0
x_9_21_0 0
x_9_21_1 0
x_9_21_2 0
x_9_22_0 0
x_9_22_1 0
x_9_22_2 0
x_9_23_0 0
x_9_23_1 0
x_9_23_2 0
x_9_24_0 0
x_9_24_1 0
x_9_24_2 0
x_9_25_0 0
x_9_25_1 0
x_9_25_2 0
x_10_11_0 0
x_10_11_1 0
x_10_11_2 3.3723024372989130e-15
x_10_12_0 0
x_10_12_1 0
x_10_12_2 0
x_10_13_0 0
x_10_13_1 0
x_10_13_2 0
x_10_14_0 0
x_10_14_1 0
x_10_14_2 0
x_10_15_0 0
x_10_15_1 0
x_10_15_2 -9.1732177409653559e-15
x_10_16_0 1.1435297153639112e-14
x_10_16_1 0
x_10_16_2 0
x_10_17_0 0
x_10_17_1 0
x_10_17_2 0
x_10_18_0 1.0000000000000040e+00
x_10_18_1 0
x_10_18_2 0
x_10_19_0 0
x_10_19_1 0
x_10_19_2 0
x_10_20_0 6.23945339839338e-14
x_10_20_1 0
x_10_20_2 -4.6906922790412864e-15
x_10_21_0 0
x_10_21_1 0
x_10_21_2 0
x_10_22_0 0
x_10_22_1 0
x_10_22_2 0
x_10_23_0 0
x_10_23_1 0
x_10_23_2 0
x_10_24_0 0
x_10_24_1 0
x_10_24_2 0
x_10_25_0 -1.9512169657787126e-14
x_10_25_1 0
x_10_25_2 -4.1078251911130792e-15
x_11_12_0 0
x_11_12_1 0
x_11_12_2 0
x_11_13_0 0
x_11_13_1 0
x_11_13_2 0
x_11_14_0 0
x_11_14_1 0
x_11_14_2 0
x_11_15_0 0
x_11_15_1 0
x_11_15_2 0
x_11_16_0 4.4408920985006262e-16
x_11_16_1 0
x_11_16_2 0
x_11_17_0 0
x_11_17_1 0
x_11_17_2 0
x_11_18_0 0
x_11_18_1 0
x_11_18_2 0
x_11_19_0 0
x_11_19_1 0
x_11_19_2 0
x_11_20_0 0
x_11_20_1 -3.4527936065842368e-14
x_11_20_2 0
x_11_21_0 0
x_11_21_1 0
x_11_21_2 0
x_11_22_0 0
x_11_22_1 0
x_11_22_2 0
x_11_23_0 0
x_11_23_1 0
x_11_23_2 0
x_11_24_0 0
x_11_24_1 0
x_11_24_2 0
x_11_25_0 1
x_11_25_1 9.9999999999998845e-01
x_11_25_2 6.1062266354383610e-16
x_12_13_0 0
x_12_13_1 0
x_12_13_2 0
x_12_14_0 0
x_12_14_1 0
x_12_14_2 0
x_12_15_0 0
x_12_15_1 0
x_12_15_2 0
x_12_16_0 0
x_12_16_1 0
x_12_16_2 0
x_12_17_0 0
x_12_17_1 1.0000000000000333e+00
x_12_17_2 0
x_12_18_0 0
x_12_18_1 0
x_12_18_2 0
x_12_19_0 0
x_12_19_1 0
x_12_19_2 0
x_12_20_0 0
x_12_20_1 0
x_12_20_2 0
x_12_21_0 0
x_12_21_1 -3.24462678946702e-14
x_12_21_2 0
x_12_22_0 0
x_12_22_1 0
x_12_22_2 0
x_12_23_0 0
x_12_23_1 0
x_12_23_2 0
x_12_24_0 0
x_12_24_1 0
x_12_24_2 0
x_12_25_0 0
x_12_25_1 0
x_12_25_2 0
x_13_14_0 0
x_13_14_1 0
x_13_14_2 0
x_13_15_0 0
x_13_15_1 0
x_13_15_2 0
x_13_16_0 0
x_13_16_1 0
x_13_16_2 0
x_13_17_0 0
x_13_17_1 0
x_13_17_2 0
x_13_18_0 0
x_13_18_1 0
x_13_18_2 0
x_13_19_0 0
x_13_19_1 9.9999999999999878e-01
x_13_19_2 0
x_13_20_0 0
x_13_20_1 0
x_13_20_2 0
x_13_21_0 0
x_13_21_1 0
x_13_21_2 0
x_13_22_0 0
x_13_22_1 0
x_13_22_2 0
x_13_23_0 0
x_13_23_1 0
x_13_23_2 0
x_13_24_0 0
x_13_24_1 0
x_13_24_2 0
x_13_25_0 0
x_13_25_1 0
x_13_25_2 0
x_14_15_0 0
x_14_15_1 0
x_14_15_2 0
x_14_16_0 0
x_14_16_1 0
x_14_16_2 0
x_14_17_0 0
x_14_17_1 0
x_14_17_2 0
x_14_18_0 0
x_14_18_1 0
x_14_18_2 0
x_14_19_0 0
x_14_19_1 0
x_14_19_2 1.0380585280245214e-14
x_14_20_0 0
x_14_20_1 0
x_14_20_2 0
x_14_21_0 0
x_14_21_1 0
x_14_21_2 0
x_14_22_0 0
x_14_22_1 0
x_14_22_2 0
x_14_23_0 0
x_14_23_1 0
x_14_23_2 0
x_14_24_0 0
x_14_24_1 0
x_14_24_2 0
x_14_25_0 0
x_14_25_1 0
x_14_25_2 0
x_15_16_0 -2.1205259770340490e-14
x_15_16_1 0
x_15_16_2 0
x_15_17_0 0
x_15_17_1 0
x_15_17_2 0
x_15_18_0 1.0000000000000626e+00
x_15_18_1 0
x_15_18_2 0
x_15_19_0 0
x_15_19_1 0
x_15_19_2 0
x_15_20_0 0
x_15_20_1 0
x_15_20_2 0
x_15_21_0 -7.7826634026223473e-14
x_15_21_1 0
x_15_21_2 9.1177065897340981e-15
x_15_22_0 0
x_15_22_1 0
x_15_22_2 0
x_15_23_0 0
x_15_23_1 0
x_15_23_2 0
x_15_24_0 0
x_15_24_1 0
x_15_24_2 0
x_15_25_0 -7.9380946260698693e-14
x_15_25_1 0
x_15_25_2 4.08006961549745e-15
x_16_17_0 0
x_16_17_1 0
x_16_17_2 0
x_16_18_0 0
x_16_18_1 0
x_16_18_2 0
x_16_19_0 0
x_16_19_1 -1.9567680809018384e-14
x_16_19_2 0
x_16_20_0 0
x_16_20_1 0
x_16_20_2 0
x_16_21_0 0
x_16_21_1 0
x_16_21_2 0
x_16_22_0 3.17523785042787e-14
x_16_22_1 1.0000000000000153e+00
x_16_22_2 0
x_16_23_0 0
x_16_23_1 0
x_16_23_2 0
x_16_24_0 0
x_16_24_1 0
x_16_24_2 0
x_16_25_0 1.00000000000008
x_16_25_1 1
x_16_25_2 0
x_17_18_0 0
x_17_18_1 0
x_17_18_2 0
x_17_19_0 0
x_17_19_1 0
x_17_19_2 0
x_17_20_0 0
x_17_20_1 0
x_17_20_2 0
x_17_21_0 0
x_17_21_1 0
x_17_21_2 0
x_17_22_0 0
x_17_22_1 0
x_17_22_2 0
x_17_23_0 0
x_17_23_1 0
x_17_23_2 0
x_17_24_0 0
x_17_24_1 0
x_17_24_2 0
x_17_25_0 0
x_17_25_1 0
x_17_25_2 0
x_18_19_0 0
x_18_19_1 0
x_18_19_2 0
x_18_20_0 -6.6502359175046877e-14
x_18_20_1 0
x_18_20_2 0
x_18_21_0 0
x_18_21_1 0
x_18_21_2 0
x_18_22_0 0
x_18_22_1 0
x_18_22_2 0
x_18_23_0 0
x_18_23_1 0
x_18_23_2 0
x_18_24_0 0
x_18_24_1 0
x_18_24_2 0
x_18_25_0 0
x_18_25_1 0
x_18_25_2 0
x_19_20_0 0
x_19_20_1 0
x_19_20_2 0
x_19_21_0 0
x_19_21_1 0
x_19_21_2 0
x_19_22_0 0
x_19_22_1 0
x_19_22_2 0
x_19_23_0 0
x_19_23_1 -4.8183679268731794e-14
x_19_23_2 0
x_19_24_0 0
x_19_24_1 1.0000000000000711e+00
x_19_24_2 0
x_19_25_0 0
x_19_25_1 0
x_19_25_2 0
x_20_21_0 0
x_20_21_1 1.0000000000000149e+00
x_20_21_2 -3.5416114485542494e-14
x_20_22_0 0
x_20_22_1 0
x_20_22_2 0
x_20_23_0 0
x_20_23_1 0
x_20_23_2 0
x_20_24_0 0
x_20_24_1 0
x_20_24_2 0
x_20_25_0 0
x_20_25_1 0
x_20_25_2 0
x_21_22_0 0
x_21_22_1 0
x_21_22_2 0
x_21_23_0 0
x_21_23_1 0
x_21_23_2 0
x_21_24_0 0
x_21_24_1 0
x_21_24_2 0
x_21_25_0 0
x_21_25_1 0
x_21_25_2 0
x_22_23_0 0
x_22_23_1 -1.5473733405713119e-14
x_22_23_2 0
x_22_24_0 0
x_22_24_1 0
x_22_24_2 0
x_22_25_0 0
x_22_25_1 0
x_22_25_2 0
x_23_24_0 0
x_23_24_1 1.0000000000000713e+00
x_23_24_2 0
x_23_25_0 0
x_23_25_1 0
x_23_25_2 0
x_24_25_0 0
x_24_25_1 0
x_24_25_2 0
